webassembly/ejemplos_results/folder8_json_74.txt
value = 8;
fgas = [1, 2, 1, 1, 1, 1, 1, 1];
fsize = [1, 1, 1, 1, 1, 1, 1, 1];
states = 
[|   in_0,   in_1,   in_2, in_3,  '.', '.', '.', '.',  '.'
 | 's(3)',   in_1,   in_1, in_2, in_3, '.', '.', '.',  '.'
 |   in_1,   in_1,   in_2, in_3,  '.', '.', '.', '.',  '.'
 | 's(0)',   in_2,   in_2, in_3,  '.', '.', '.', '.',  '.'
 | 's(1)',   in_3,   in_3,  '.',  '.', '.', '.', '.',  '.'
 | 's(2)', 's(2)',    '.',  '.',  '.', '.', '.', '.', in_0
 | 's(3)',   in_0, 's(2)',  '.',  '.', '.', '.', '.',  '.'
 |   in_0, 's(2)',    '.',  '.',  '.', '.', '.', '.',  '.'
 |   in_0, 's(2)',    '.',  '.',  '.', '.', '.', '.',  '.'
 |];
register_states = 
[| local_0, local_1, '.', '.', '.', '.', '.'
 | local_0, local_1, '.', '.', '.', '.', '.'
 | local_0, local_1, '.', '.', '.', '.', '.'
 | local_0, local_1, '.', '.', '.', '.', '.'
 | local_0, local_1, '.', '.', '.', '.', '.'
 | local_0, local_1, '.', '.', '.', '.', '.'
 | local_0, local_1, '.', '.', '.', '.', '.'
 |  's(3)', local_1, '.', '.', '.', '.', '.'
 |  's(3)',    in_0, '.', '.', '.', '.', '.'
 |];
program = [O('i32.const_0'), POP, O('i32.load8_u_2'), O('i32.sub_0'), O('i32.add_0'), O('i32.const_0'), S(SET1), TEE(TEE2)];
% time elapsed: 0.08 s
----------
value = 7;
fgas = [1, 1, 1, 1, 1, 1, 1, 0];
fsize = [1, 1, 1, 1, 1, 1, 1, 1];
states = 
[|   in_0,   in_1,   in_2, in_3, '.', '.', '.', '.',  '.'
 |   in_1,   in_2,   in_3,  '.', '.', '.', '.', '.',  '.'
 | 's(0)',   in_2,   in_3,  '.', '.', '.', '.', '.',  '.'
 | 's(0)',   in_2,   in_3,  '.', '.', '.', '.', '.',  '.'
 | 's(1)',   in_3,    '.',  '.', '.', '.', '.', '.',  '.'
 | 's(2)', 's(2)',    '.',  '.', '.', '.', '.', '.', in_0
 | 's(3)',   in_0, 's(2)',  '.', '.', '.', '.', '.',  '.'
 |   in_0, 's(2)',    '.',  '.', '.', '.', '.', '.',  '.'
 |   in_0, 's(2)',    '.',  '.', '.', '.', '.', '.',  '.'
 |];
register_states = 
[| local_0, local_1, '.', '.', '.', '.', '.'
 | local_0,    in_0, '.', '.', '.', '.', '.'
 | local_0,    in_0, '.', '.', '.', '.', '.'
 |  's(0)',    in_0, '.', '.', '.', '.', '.'
 |  's(0)',    in_0, '.', '.', '.', '.', '.'
 |  's(0)',    in_0, '.', '.', '.', '.', '.'
 |  's(0)',    in_0, '.', '.', '.', '.', '.'
 |  's(3)',    in_0, '.', '.', '.', '.', '.'
 |  's(3)',    in_0, '.', '.', '.', '.', '.'
 |];
program = [S(SET2), O('i32.load8_u_2'), TEE(TEE1), O('i32.sub_0'), O('i32.add_0'), O('i32.const_0'), S(SET1), NOP];
% time elapsed: 0.08 s
----------
value = 6;
fgas = [1, 1, 1, 1, 1, 1, 0, 0];
fsize = [1, 1, 1, 1, 1, 1, 1, 1];
states = 
[|   in_0,   in_1,   in_2, in_3, '.', '.', '.', '.',  '.'
 |   in_1,   in_2,   in_3,  '.', '.', '.', '.', '.',  '.'
 | 's(0)',   in_2,   in_3,  '.', '.', '.', '.', '.',  '.'
 | 's(1)',   in_3,    '.',  '.', '.', '.', '.', '.',  '.'
 | 's(2)', 's(2)',    '.',  '.', '.', '.', '.', '.', in_0
 | 's(3)',   in_0, 's(2)',  '.', '.', '.', '.', '.',  '.'
 |   in_0, 's(2)',    '.',  '.', '.', '.', '.', '.',  '.'
 |   in_0, 's(2)',    '.',  '.', '.', '.', '.', '.',  '.'
 |   in_0, 's(2)',    '.',  '.', '.', '.', '.', '.',  '.'
 |];
register_states = 
[| local_0, local_1, '.', '.', '.', '.', '.'
 | local_0,    in_0, '.', '.', '.', '.', '.'
 | local_0,    in_0, '.', '.', '.', '.', '.'
 | local_0,    in_0, '.', '.', '.', '.', '.'
 | local_0,    in_0, '.', '.', '.', '.', '.'
 | local_0,    in_0, '.', '.', '.', '.', '.'
 |  's(3)',    in_0, '.', '.', '.', '.', '.'
 |  's(3)',    in_0, '.', '.', '.', '.', '.'
 |  's(3)',    in_0, '.', '.', '.', '.', '.'
 |];
program = [S(SET2), O('i32.load8_u_2'), O('i32.sub_0'), O('i32.add_0'), O('i32.const_0'), S(SET1), NOP, NOP];
% time elapsed: 0.08 s
----------
==========
% time elapsed: 0.08 s
% [value > 5]
